========================================================== 
File name: C:\DEGR\assets\definitions\MSRCPSP_Gen\500_40_512_5_A.def
Creation date: Sat May 06 09:16:46 CEST 2023
Website: http://imopse.ii.pwr.edu.pl/ 
Reference: 
Myszkowski P. B., Skowronski M. E., Olech L., Oslizlo K., 
Hybrid Ant Colony Optimization in solving Multi-Skill Resource-Constrained Project Scheduling Problem, 
Soft Computing, DOI: DOI 10.1007/s00500-014-1455-x 
========================================================== 
General characteristics: 
Tasks: 500
Resources: 40
Precedence relations: 509
Number of skill types: 5
========================================================== 
ResourceID 	 Salary 	 Skills 
1	 	 	61.6	 	 Q2: 2 	  Q3: 1 	 
2	 	 	47.1	 	 Q1: 0 	  Q3: 3 	 
3	 	 	21.1	 	 Q0: 0 	 
4	 	 	44.9	 	 Q4: 1 	  Q1: 0 	 
5	 	 	11.8	 	 Q3: 1 	  Q4: 3 	 
6	 	 	68.3	 	 Q4: 2 	 
7	 	 	75.3	 	 Q1: 3 	  Q4: 2 	  Q2: 3 	 
8	 	 	54.4	 	 Q2: 0 	  Q1: 1 	  Q0: 0 	 
9	 	 	64.1	 	 Q0: 0 	  Q3: 2 	  Q4: 0 	  Q1: 1 	 
10	 	 	15.4	 	 Q1: 1 	  Q2: 1 	  Q4: 1 	 
11	 	 	86.8	 	 Q3: 3 	  Q1: 3 	  Q0: 2 	 
12	 	 	19.2	 	 Q1: 1 	  Q0: 1 	  Q3: 1 	 
13	 	 	42.1	 	 Q4: 0 	  Q3: 2 	  Q2: 3 	 
14	 	 	72.6	 	 Q0: 0 	 
15	 	 	51.5	 	 Q1: 2 	  Q0: 2 	  Q4: 2 	  Q2: 3 	 
16	 	 	97.8	 	 Q2: 0 	  Q0: 0 	  Q3: 0 	  Q1: 3 	 
17	 	 	61.8	 	 Q3: 3 	 
18	 	 	82.5	 	 Q2: 1 	  Q1: 3 	 
19	 	 	40.7	 	 Q1: 0 	  Q2: 3 	 
20	 	 	75.2	 	 Q0: 1 	  Q1: 3 	 
21	 	 	22.1	 	 Q2: 1 	  Q0: 3 	 
22	 	 	46.1	 	 Q3: 1 	  Q1: 0 	  Q2: 3 	  Q0: 2 	 
23	 	 	70.1	 	 Q1: 3 	  Q4: 1 	  Q3: 0 	 
24	 	 	89.9	 	 Q3: 3 	 
25	 	 	24.9	 	 Q1: 2 	 
26	 	 	61.4	 	 Q1: 3 	  Q3: 1 	  Q2: 3 	  Q4: 2 	 
27	 	 	89.8	 	 Q0: 2 	 
28	 	 	16.7	 	 Q1: 2 	 
29	 	 	60.9	 	 Q0: 2 	 
30	 	 	15.8	 	 Q2: 0 	 
31	 	 	98.6	 	 Q2: 0 	  Q3: 0 	  Q4: 2 	  Q1: 2 	 
32	 	 	44.2	 	 Q2: 1 	  Q4: 1 	  Q0: 0 	  Q1: 2 	 
33	 	 	55.2	 	 Q1: 0 	  Q4: 1 	  Q2: 2 	  Q3: 2 	 
34	 	 	80.0	 	 Q4: 3 	  Q2: 2 	 
35	 	 	82.5	 	 Q3: 2 	  Q4: 2 	 
36	 	 	37.0	 	 Q4: 3 	  Q0: 0 	  Q1: 0 	  Q3: 0 	 
37	 	 	14.6	 	 Q0: 0 	 
38	 	 	42.0	 	 Q4: 3 	  Q3: 2 	  Q1: 0 	  Q0: 2 	 
39	 	 	54.3	 	 Q1: 2 	  Q4: 2 	  Q0: 0 	 
40	 	 	23.9	 	 Q2: 1 	 
========================================================== 
TaskID 	 Duration 	 Skill 	 Predecessor IDs 
1	35	Q0:	3
2	9	Q1:	1
3	21	Q3:	2
4	21	Q0:	3
5	38	Q3:	0
6	12	Q3:	3
7	16	Q1:	1
8	12	Q3:	2
9	27	Q0:	2
10	31	Q4:	0
11	23	Q1:	0
12	29	Q3:	1
13	26	Q4:	0
14	11	Q1:	0
15	29	Q0:	0
16	21	Q1:	1
17	34	Q0:	1
18	20	Q2:	0
19	24	Q2:	0
20	35	Q2:	0
21	23	Q0:	0
22	40	Q4:	1
23	20	Q3:	3
24	36	Q3:	2	6
25	11	Q1:	0
26	14	Q0:	2
27	19	Q1:	3
28	30	Q0:	2
29	22	Q1:	1
30	34	Q3:	1
31	18	Q0:	3	9
32	17	Q3:	1
33	29	Q4:	0
34	15	Q1:	1
35	27	Q4:	0
36	21	Q1:	2
37	24	Q4:	1
38	32	Q3:	2
39	35	Q4:	0
40	36	Q1:	2
41	32	Q1:	1
42	25	Q0:	1
43	23	Q0:	0
44	10	Q4:	3
45	40	Q2:	1
46	37	Q0:	3
47	19	Q2:	2
48	39	Q1:	0	2
49	36	Q1:	1	3
50	35	Q2:	2
51	10	Q2:	2
52	18	Q0:	0	2
53	12	Q1:	1
54	25	Q1:	0
55	22	Q2:	3
56	30	Q4:	2
57	15	Q2:	3
58	29	Q4:	3
59	32	Q4:	1
60	11	Q0:	3
61	38	Q1:	1
62	40	Q0:	1	55	41
63	17	Q3:	2
64	17	Q2:	0	63
65	28	Q2:	0
66	31	Q3:	0
67	30	Q0:	3
68	19	Q2:	3
69	33	Q1:	2
70	15	Q1:	1
71	9	Q2:	2
72	16	Q3:	0
73	14	Q3:	2
74	38	Q2:	0
75	40	Q2:	2
76	11	Q2:	0
77	28	Q3:	2
78	15	Q4:	3
79	22	Q1:	0
80	34	Q0:	0
81	36	Q1:	2
82	14	Q3:	1	22
83	32	Q2:	0
84	9	Q4:	1
85	38	Q2:	1
86	34	Q1:	3
87	12	Q3:	3
88	13	Q0:	1
89	22	Q1:	0
90	31	Q2:	3
91	16	Q4:	3
92	34	Q1:	3
93	38	Q4:	2	21
94	38	Q1:	2
95	33	Q3:	2
96	15	Q0:	0
97	35	Q4:	0
98	37	Q3:	2	42
99	38	Q2:	1	24	68
100	29	Q0:	1
101	22	Q2:	3	16	22
102	35	Q3:	2	32	87	77	17
103	29	Q4:	0	58
104	22	Q2:	3
105	18	Q3:	3
106	39	Q1:	2
107	37	Q1:	1	104
108	26	Q1:	1
109	26	Q4:	0	94	30
110	18	Q1:	0
111	13	Q2:	1
112	24	Q2:	0	84
113	31	Q2:	0
114	20	Q1:	3
115	13	Q0:	1	87	77
116	34	Q0:	2
117	15	Q3:	2	59
118	22	Q0:	2	64
119	29	Q4:	1
120	35	Q1:	2	111
121	33	Q1:	2	95	9	19
122	17	Q4:	1
123	23	Q1:	2	111
124	18	Q3:	0	62
125	29	Q2:	2	99
126	11	Q3:	0
127	12	Q1:	3	15
128	35	Q3:	1	28
129	24	Q3:	2
130	20	Q3:	2
131	20	Q2:	2
132	31	Q4:	1
133	10	Q0:	3	41
134	20	Q2:	3
135	37	Q0:	0	40	95
136	26	Q1:	2	134
137	29	Q4:	1	135
138	36	Q3:	3
139	36	Q4:	0	73	84	7	19
140	31	Q2:	1
141	33	Q4:	1
142	19	Q0:	0	133
143	17	Q3:	3
144	27	Q2:	2
145	13	Q3:	3	122
146	18	Q4:	2	61	109
147	13	Q4:	2
148	36	Q2:	0
149	22	Q4:	1
150	30	Q1:	1	70	135
151	14	Q0:	2
152	28	Q0:	0	94
153	35	Q4:	2
154	33	Q3:	1	66
155	26	Q4:	0
156	34	Q0:	2
157	18	Q2:	1
158	24	Q4:	1
159	17	Q0:	3	47	86
160	23	Q3:	1
161	40	Q1:	0
162	22	Q3:	0	154	128
163	18	Q2:	0	14	96
164	29	Q0:	1	33
165	24	Q2:	1	77
166	22	Q1:	2	37
167	20	Q0:	1	28
168	28	Q4:	0
169	21	Q3:	0
170	25	Q1:	1
171	14	Q4:	0
172	36	Q0:	1	158
173	11	Q4:	1
174	40	Q0:	0
175	39	Q3:	0	148	57
176	40	Q2:	0	126
177	10	Q3:	3	20
178	18	Q0:	3
179	19	Q0:	3	80	14
180	19	Q4:	3
181	9	Q1:	3
182	39	Q2:	1	131	34
183	17	Q3:	1	141
184	9	Q2:	1	109
185	29	Q0:	0
186	26	Q2:	1	90
187	39	Q2:	2
188	38	Q0:	0
189	21	Q3:	1
190	25	Q3:	0	55
191	31	Q4:	3
192	20	Q3:	0
193	16	Q4:	3
194	30	Q4:	2	132
195	35	Q4:	2	55	22
196	38	Q3:	2
197	27	Q2:	1
198	15	Q3:	1	175
199	20	Q3:	1
200	39	Q1:	3	66	147
201	19	Q1:	3	118
202	16	Q4:	1
203	36	Q4:	1
204	17	Q3:	1	120
205	21	Q3:	1	102
206	38	Q0:	1
207	26	Q2:	3
208	16	Q2:	0	178
209	36	Q0:	0
210	37	Q2:	2
211	32	Q3:	1	62	13
212	19	Q0:	2	102
213	36	Q4:	2	120
214	30	Q1:	3	76
215	16	Q2:	0	161
216	26	Q3:	2	95
217	27	Q4:	0	149	154
218	34	Q2:	1	161
219	40	Q0:	2	45
220	33	Q3:	3	173
221	34	Q2:	1	122	112
222	25	Q3:	1
223	23	Q0:	0	93
224	15	Q3:	1	31
225	19	Q2:	0	101	38
226	35	Q2:	2	210	202
227	30	Q4:	2	110	180	175
228	24	Q2:	1	89
229	37	Q0:	0
230	19	Q3:	1
231	31	Q0:	0	159	127
232	31	Q0:	2
233	9	Q0:	2	118
234	28	Q2:	1	175	216
235	16	Q2:	2	82	188	54
236	11	Q1:	1	157	158
237	10	Q1:	3	39	134
238	9	Q1:	1	3	145
239	33	Q0:	1	116
240	11	Q4:	3	26	175
241	17	Q3:	0	37
242	37	Q4:	3
243	36	Q1:	2	170
244	37	Q3:	3
245	24	Q2:	0
246	16	Q1:	3	238	224
247	9	Q2:	3
248	23	Q3:	2
249	32	Q3:	3	196	122	62	7	19
250	27	Q3:	2	11	199
251	12	Q0:	2
252	37	Q2:	2	196
253	25	Q0:	3	55
254	11	Q1:	2
255	22	Q3:	0	2	100
256	35	Q3:	0
257	20	Q3:	0
258	39	Q2:	3	15
259	20	Q4:	1	195
260	37	Q3:	1	21
261	36	Q2:	3	79	7
262	11	Q2:	1	79
263	23	Q1:	3	218
264	29	Q0:	2	18	146	222
265	17	Q1:	2	202	99
266	32	Q2:	3	89
267	25	Q2:	1	133
268	32	Q1:	2	81
269	26	Q3:	3
270	22	Q2:	1	12	48
271	20	Q1:	1
272	22	Q2:	3	51	196
273	15	Q4:	0	161
274	22	Q4:	0	163
275	34	Q1:	0
276	25	Q2:	0
277	14	Q4:	2	170
278	20	Q1:	3
279	13	Q0:	3
280	24	Q0:	0	85	186	125
281	23	Q2:	3	58
282	11	Q0:	2	26	79
283	40	Q4:	2	34	51
284	9	Q3:	3	100
285	18	Q1:	2
286	18	Q0:	0
287	39	Q1:	3	172	140	242
288	15	Q1:	3	173
289	24	Q2:	3
290	34	Q0:	3	132	84	126	274
291	24	Q0:	1
292	40	Q3:	0	48	228
293	17	Q3:	0	26
294	30	Q1:	3
295	15	Q1:	2	287	156	203	84
296	13	Q4:	2
297	26	Q4:	3
298	27	Q2:	0
299	31	Q3:	1
300	28	Q0:	1
301	24	Q1:	1	256	121	214	206
302	9	Q3:	1	81	31
303	25	Q3:	3
304	19	Q0:	0
305	13	Q0:	3	281
306	30	Q4:	1	103
307	35	Q2:	0	152	180	118
308	33	Q3:	1	236
309	25	Q3:	2	268
310	25	Q2:	1	117
311	10	Q2:	3
312	16	Q2:	0
313	40	Q3:	2	207
314	18	Q4:	1
315	16	Q4:	2	107	25
316	28	Q3:	1
317	37	Q4:	2	217	61
318	20	Q4:	2	117
319	31	Q0:	1	309
320	28	Q2:	0	253	41
321	15	Q4:	2
322	20	Q0:	3
323	21	Q3:	3	73
324	25	Q4:	1	89	242	225	136
325	31	Q1:	3	140	139
326	12	Q3:	0	149
327	16	Q4:	3	279	55	33
328	27	Q4:	3	249
329	16	Q0:	1	290	83	48
330	35	Q0:	3	84	123
331	34	Q2:	1
332	32	Q2:	3
333	33	Q2:	3	258
334	17	Q2:	1	94	124
335	10	Q2:	0	294
336	23	Q3:	2
337	20	Q2:	0	310	219
338	26	Q4:	1
339	12	Q3:	3
340	14	Q2:	2
341	13	Q1:	1
342	36	Q3:	3
343	22	Q3:	1	216	127
344	26	Q3:	3	262
345	29	Q2:	1
346	33	Q3:	1
347	10	Q1:	0	305	20
348	36	Q1:	3	326
349	13	Q3:	0
350	23	Q3:	1	138	115
351	28	Q2:	2	55	256	65	207	218	124
352	16	Q2:	1	211	20
353	11	Q2:	0	241
354	36	Q0:	2	184	293	335
355	10	Q2:	0	351
356	18	Q2:	0	311	352	107
357	28	Q0:	2	79	292	4	187	255	84
358	38	Q3:	3	183
359	24	Q3:	2	136	269
360	37	Q0:	0
361	21	Q0:	3
362	29	Q2:	1	121	173	359	273
363	12	Q2:	0	296	39
364	40	Q2:	1
365	38	Q3:	1	214	72
366	11	Q4:	2	250	205	349	338	197	348
367	23	Q2:	1	131	146
368	30	Q1:	3	95	103
369	35	Q4:	3	169	271
370	27	Q3:	1	163
371	29	Q4:	0	305	72	319
372	19	Q1:	0	310	322
373	33	Q1:	0
374	13	Q4:	3	120	332
375	14	Q4:	0	304
376	12	Q1:	3	173
377	10	Q2:	3	320
378	30	Q4:	0	338	54	110
379	23	Q0:	1	268	172	68
380	34	Q3:	2
381	33	Q3:	3
382	33	Q4:	3	295	138	330
383	19	Q2:	0	247	151
384	34	Q1:	1	6
385	26	Q4:	1	266
386	36	Q1:	2	332	340	115
387	10	Q4:	3	363	8	3
388	19	Q2:	1
389	16	Q2:	1
390	20	Q3:	0	148
391	10	Q1:	2
392	16	Q3:	2	346	92
393	25	Q0:	1	320	201
394	10	Q4:	0	285
395	13	Q3:	0	85	114
396	18	Q4:	0	388
397	39	Q2:	1	190	201
398	13	Q3:	3	235	357
399	20	Q2:	2	120	338	40
400	37	Q2:	1
401	14	Q3:	3	252	99
402	20	Q3:	2	151
403	22	Q3:	2
404	20	Q0:	0
405	18	Q4:	1
406	9	Q0:	1	50
407	20	Q1:	2	62	385	51
408	20	Q0:	2	143
409	27	Q3:	1	354
410	12	Q1:	3
411	16	Q0:	0	179	211
412	39	Q2:	3
413	9	Q2:	2	362	137
414	8	Q4:	0	207
415	32	Q3:	2	298
416	31	Q0:	3	17	137
417	35	Q2:	0	237
418	25	Q0:	2	348	355
419	9	Q1:	2
420	23	Q0:	2	123
421	12	Q0:	2	151
422	38	Q3:	0	322	196	308
423	30	Q1:	3	335	44	78	61
424	16	Q3:	0	101
425	37	Q0:	0
426	13	Q0:	3	37	198
427	17	Q3:	0	16
428	19	Q3:	2
429	13	Q0:	0	412	4
430	15	Q3:	1
431	21	Q3:	1	294	261	376	196
432	14	Q3:	1	263	225	101	150
433	31	Q3:	1	160	82
434	37	Q3:	0	397	77
435	14	Q3:	2	281
436	24	Q4:	2
437	25	Q3:	2
438	29	Q1:	0	106	60
439	21	Q4:	1	330
440	36	Q4:	2	304	152
441	18	Q0:	1	410	64	263	344	301
442	32	Q3:	0
443	40	Q1:	3	372	142
444	36	Q1:	0
445	31	Q0:	1	60	201	31	188	384
446	33	Q2:	2
447	35	Q0:	2	445	324
448	11	Q3:	3	128	203
449	27	Q3:	0
450	20	Q1:	2	402	111
451	17	Q1:	3	382	319
452	10	Q1:	2	241	156
453	28	Q4:	0	271
454	37	Q2:	2	198	71	172
455	36	Q3:	2	147	124
456	12	Q3:	0	44
457	32	Q0:	3	137	337
458	40	Q4:	0	251	326
459	11	Q0:	1	29	258
460	17	Q0:	3
461	17	Q0:	1	426	104	256	278
462	39	Q2:	2	283	14
463	38	Q1:	1	300	323	265	395
464	13	Q3:	1	84	409
465	13	Q1:	1	156	464
466	22	Q2:	3	407	379
467	31	Q3:	1	17	382	225
468	39	Q3:	2	274	90	12
469	30	Q2:	1	307
470	22	Q4:	2
471	27	Q1:	0	299
472	22	Q1:	0
473	33	Q2:	2	239	129
474	23	Q2:	1	47	461
475	19	Q0:	3	284	396
476	12	Q2:	3
477	31	Q1:	2	376	72	334
478	27	Q1:	3	374	337	333	294
479	30	Q4:	3	436	29	57
480	20	Q4:	2	147
481	13	Q2:	0	79	185	2
482	14	Q3:	0	306	438
483	27	Q4:	1	69	345	437
484	11	Q4:	2	330	414	136	478
485	37	Q0:	3	208	219
486	15	Q0:	3	387	254
487	32	Q1:	0	469	186
488	19	Q2:	2	170	482	47
489	14	Q2:	0	250
490	24	Q4:	3	398
491	29	Q2:	0
492	39	Q2:	1	240
493	10	Q4:	1	149
494	9	Q2:	0	50	42
495	18	Q3:	0	353	164	299	399
496	26	Q0:	2	23	304
497	12	Q4:	3	434
498	23	Q0:	0	111	132	269	420
499	17	Q2:	1	150	28
500	16	Q0:	1	271	107	225	129	124	442
========================================================== 